unsat
(define-fun inv ((i Int) (x Int) (y Int) (n Int)) Bool (= x 0))
0.08user 0.00system 0:00.08elapsed 97%CPU (0avgtext+0avgdata 26660maxresident)k
8inputs+8outputs (0major+1432minor)pagefaults 0swaps
